c turning on binary mode checking
c parsing input formula with 202048 variables and 780980 clauses
c finished parsing, read 2335131 bytes from proof file
c detected empty clause; start verification via backward checking
c 8652 of 780980 clauses in core                            
c 2578 of 106655 lemmas in core using 161659 resolution steps
c 0 RAT lemmas in core; 827 redundant literals in core lemmas
s VERIFIED
c verification time: 1.418 seconds
